language ESSENCE' 1.0

letting fixed be 
[
    [4,1,9,0,2,0,0,0,6],
    [0,6,0,1,0,9,0,0,0],
    [0,3,0,4,6,5,9,2,1],
    [0,9,0,2,0,1,0,8,0],
    [0,0,1,0,5,0,2,9,0],
    [0,7,0,9,0,4,0,1,0],
    [0,0,6,5,0,2,0,7,9],
    [0,5,0,3,9,8,0,6,2],
    [9,2,0,0,0,0,0,0,8]
]